\* Problem: Relaxation UFLP *\

Minimize
 obj: + 2 x_1 + 4 x_2 + 3 x_3 + x_4 + 6 x_5 + x_6 + 7 x_7 + 5 x_8
 + 2 x_9 + x_10 + 3 x_11 + x_12

Subject To
 r_1: - x_11 + x_1 <= 0
 r_2: - x_11 + x_2 <= 0
 r_3: - x_11 + x_3 <= 0
 r_4: - x_11 + x_4 <= 0
 r_5: - x_11 + x_5 <= 0
 r_6: - x_12 + x_6 <= 0
 r_7: - x_12 + x_7 <= 0
 r_8: - x_12 + x_8 <= 0
 r_9: - x_12 + x_9 <= 0
 r_10: - x_12 + x_10 <= 0
 r_11: + x_6 + x_1 >= 1
 r_12: + x_7 + x_2 >= 1
 r_13: + x_8 + x_3 >= 1
 r_14: + x_9 + x_4 >= 1
 r_15: + x_10 + x_5 >= 1

Bounds
 0 <= x_1 <= 1
 0 <= x_2 <= 1
 0 <= x_3 <= 1
 0 <= x_4 <= 1
 0 <= x_5 <= 1
 0 <= x_6 <= 1
 0 <= x_7 <= 1
 0 <= x_8 <= 1
 0 <= x_9 <= 1
 0 <= x_10 <= 1
 0 <= x_11 <= 1
 0 <= x_12 <= 1

Generals
 x_11
 x_12

End
